
  32    4
  10   10   10   10

   0   0   0   0   0  11 2 3 4 6 7 8 9 12 13 18 20 
   3   0   1   1   1   8 31 27 16 15 14 11 10 5 
   7   0   4   4   8   4 29 27 10 5 
   5   1   0   2   5   5 29 28 26 19 10 
   6   6   1   0   4   7 30 26 25 24 23 22 21 
   1   3   6   3   0   7 31 30 27 26 23 22 21 
   9   0   5   7   5   5 28 26 24 21 14 
   7   2   6   6   0   4 24 23 22 17 
   3   5   6   0   4   4 28 27 21 19 
   8   4   3   0   4   4 25 24 23 21 
   1   2   3   2   0   3 24 22 21 
   3   0   2   3   4   3 25 22 21 
   6   0   1   4   3   1 14 
   2   0   6   4   4   2 23 22 
   2   5   0   4   3   2 29 24 
   9   3   7   0   5   2 28 24 
   9   6   5   0   5   2 25 21 
   3   5   4   5   0   2 27 21 
   1   0   5   4   5   1 22 
   6   3   7   0   2   1 23 
  10   3   4   0   5   1 32
   9   3   5   8   0   1 32
   2   4   4   2   0   1 32
   3   9   1   7   0   1 32
   1   4   4   0   3   1 32
   2   2   2   0   4   1 32
   2   5   0   1   6   1 32
   8   3   3   4   0   1 32
   9   5   0   4   4   1 32
   5   5   5   0   3   1 32
  10   4   0   5   1   1 32
   0   0   0   0   0   0 
